c read Graph
c width = 45
c time = 342 ms
c width = 4
c time = 447 ms
c width = 4
c time = 2835 ms
s td 52 5 56
b 1 1 2 15
b 2 2 3 15 16
b 3 12 13 27 28
b 4 3 15 16 29
b 5 12 27 28 42
b 6 29 30 44 45
b 7 41 42 54 55
b 8 3 4 5 18
b 9 5 6 7 20
b 10 7 8 9 22
b 11 9 10 11 24
b 12 3 16 17 29 30
b 13 3 17 29 30 45
b 14 3 17 30 31 45
b 15 3 17 18 31 45
b 16 3 5 18 31 45
b 17 5 18 31 32 45
b 18 5 18 19 32 45
b 19 5 19 32 45 46
b 20 5 19 32 33 46
b 21 5 19 20 33 46
b 22 5 7 20 33 46
b 23 7 20 33 46 47
b 24 7 20 33 34 47
b 25 7 20 21 34 47
b 26 7 21 34 47 48
b 27 7 21 34 35 48
b 28 7 21 22 35 48
b 29 7 9 22 35 48
b 30 9 22 35 48 49
b 31 9 22 35 36 49
b 32 9 22 23 36 49
b 33 9 23 36 49 50
b 34 9 23 36 37 50
b 35 9 23 24 37 50
b 36 9 11 24 37 50
b 37 11 24 37 50 51
b 38 11 24 37 38 51
b 39 11 24 25 38 51
b 40 11 25 38 51 52
b 41 11 25 38 39 52
b 42 11 25 39 52 53
b 43 11 12 25 39 53
b 44 12 25 26 39 53
b 45 12 26 39 40 53
b 46 12 26 27 40 53
b 47 12 27 40 42 53
b 48 27 40 41 42 53
b 49 40 41 42 53 54
b 50 42 55 56
b 51 29 43 44
b 52 13 14 28
1 2
2 4
3 52
3 5
4 12
5 47
6 51
6 13
7 50
7 49
8 16
9 22
10 29
11 36
12 13
13 14
14 15
15 16
16 17
17 18
18 19
19 20
20 21
21 22
22 23
23 24
24 25
25 26
26 27
27 28
28 29
29 30
30 31
31 32
32 33
33 34
34 35
35 36
36 37
37 38
38 39
39 40
40 41
41 42
42 43
43 44
44 45
45 46
46 47
47 48
48 49
